p cnf 962 2470
51 -2 -696 0
-51 2 0
-51 696 0
52 -51 -697 0
-52 51 0
-52 697 0
53 -698 -699 0
-53 698 0
-53 699 0
54 -53 -700 0
-54 53 0
-54 700 0
55 -701 -702 0
-55 701 0
-55 702 0
56 -8 -703 0
-56 8 0
-56 703 0
57 -56 -704 0
-57 56 0
-57 704 0
58 -705 -55 0
-58 705 0
-58 55 0
59 -706 -8 0
-59 706 0
-59 8 0
60 -59 -11 0
-60 59 0
-60 11 0
61 -707 -58 0
-61 707 0
-61 58 0
62 -13 -708 0
-62 13 0
-62 708 0
63 -62 -14 0
-63 62 0
-63 14 0
64 -709 -61 0
-64 709 0
-64 61 0
65 -16 -15 0
-65 16 0
-65 15 0
66 -65 -3 0
-66 65 0
-66 3 0
67 -710 -64 0
-67 710 0
-67 64 0
68 -17 -697 0
-68 17 0
-68 697 0
69 -68 -711 0
-69 68 0
-69 711 0
70 -712 -67 0
-70 712 0
-70 67 0
71 -713 -714 0
-71 713 0
-71 714 0
72 -71 -3 0
-72 71 0
-72 3 0
73 -715 -70 0
-73 715 0
-73 70 0
74 -716 -16 0
-74 716 0
-74 16 0
75 -74 -711 0
-75 74 0
-75 711 0
76 -717 -73 0
-76 717 0
-76 73 0
77 -21 -703 0
-77 21 0
-77 703 0
78 -77 -718 0
-78 77 0
-78 718 0
79 -719 -76 0
-79 719 0
-79 76 0
80 -720 -696 0
-80 720 0
-80 696 0
81 -80 -24 0
-81 80 0
-81 24 0
82 -721 -79 0
-82 721 0
-82 79 0
83 -20 -17 0
-83 20 0
-83 17 0
84 -83 -722 0
-84 83 0
-84 722 0
85 -723 -82 0
-85 723 0
-85 82 0
86 -20 -714 0
-86 20 0
-86 714 0
87 -86 -724 0
-87 86 0
-87 724 0
88 -725 -85 0
-88 725 0
-88 85 0
89 -27 -26 0
-89 27 0
-89 26 0
90 -89 -28 0
-90 89 0
-90 28 0
91 -726 -88 0
-91 726 0
-91 88 0
92 -29 -716 0
-92 29 0
-92 716 0
93 -92 -727 0
-93 92 0
-93 727 0
94 -728 -91 0
-94 728 0
-94 91 0
95 -31 -729 0
-95 31 0
-95 729 0
96 -95 -704 0
-96 95 0
-96 704 0
97 -730 -94 0
-97 730 0
-97 94 0
98 -731 -3 0
-98 731 0
-98 3 0
99 -98 -28 0
-99 98 0
-99 28 0
100 -732 -97 0
-100 732 0
-100 97 0
101 -32 -20 0
-101 32 0
-101 20 0
102 -101 -704 0
-102 101 0
-102 704 0
103 -733 -100 0
-103 733 0
-103 100 0
104 -34 -734 0
-104 34 0
-104 734 0
105 -104 -14 0
-105 104 0
-105 14 0
106 -735 -103 0
-106 735 0
-106 103 0
107 -736 -35 0
-107 736 0
-107 35 0
108 -107 -34 0
-108 107 0
-108 34 0
109 -737 -106 0
-109 737 0
-109 106 0
110 -37 -738 0
-110 37 0
-110 738 0
111 -110 -38 0
-111 110 0
-111 38 0
112 -739 -109 0
-112 739 0
-112 109 0
113 -740 -32 0
-113 740 0
-113 32 0
114 -113 -38 0
-114 113 0
-114 38 0
115 -741 -112 0
-115 741 0
-115 112 0
116 -742 -29 0
-116 742 0
-116 29 0
117 -116 -743 0
-117 116 0
-117 743 0
118 -744 -115 0
-118 744 0
-118 115 0
119 -742 -745 0
-119 742 0
-119 745 0
120 -119 -746 0
-120 119 0
-120 746 0
121 -747 -118 0
-121 747 0
-121 118 0
122 -39 -731 0
-122 39 0
-122 731 0
123 -122 -40 0
-123 122 0
-123 40 0
124 -748 -121 0
-124 748 0
-124 121 0
125 -749 -4 0
-125 749 0
-125 4 0
126 -125 -42 0
-126 125 0
-126 42 0
127 -750 -124 0
-127 750 0
-127 124 0
128 -749 -5 0
-128 749 0
-128 5 0
129 -128 -1 0
-129 128 0
-129 1 0
130 -751 -127 0
-130 751 0
-130 127 0
131 -752 -745 0
-131 752 0
-131 745 0
132 -131 -753 0
-132 131 0
-132 753 0
133 -754 -130 0
-133 754 0
-133 130 0
134 -44 -16 0
-134 44 0
-134 16 0
135 -134 -700 0
-135 134 0
-135 700 0
136 -755 -133 0
-136 755 0
-136 133 0
137 -753 -756 0
-137 753 0
-137 756 0
138 -137 -757 0
-138 137 0
-138 757 0
139 -758 -136 0
-139 758 0
-139 136 0
140 -31 -759 0
-140 31 0
-140 759 0
141 -140 -30 0
-141 140 0
-141 30 0
142 -760 -139 0
-142 760 0
-142 139 0
143 -761 -746 0
-143 761 0
-143 746 0
144 -143 -43 0
-144 143 0
-144 43 0
145 -762 -142 0
-145 762 0
-145 142 0
146 -46 -15 0
-146 46 0
-146 15 0
147 -146 -1 0
-147 146 0
-147 1 0
148 -763 -145 0
-148 763 0
-148 145 0
149 -716 -698 0
-149 716 0
-149 698 0
150 -149 -1 0
-150 149 0
-150 1 0
151 -764 -148 0
-151 764 0
-151 148 0
152 -708 -1 0
-152 708 0
-152 1 0
153 -152 -9 0
-153 152 0
-153 9 0
154 -765 -151 0
-154 765 0
-154 151 0
155 -33 -7 0
-155 33 0
-155 7 0
156 -155 -45 0
-156 155 0
-156 45 0
157 -766 -154 0
-157 766 0
-157 154 0
158 -26 -15 0
-158 26 0
-158 15 0
159 -158 -45 0
-159 158 0
-159 45 0
160 -767 -157 0
-160 767 0
-160 157 0
161 -47 -756 0
-161 47 0
-161 756 0
162 -161 -38 0
-162 161 0
-162 38 0
163 -768 -160 0
-163 768 0
-163 160 0
164 -33 -1 0
-164 33 0
-164 1 0
165 -164 -31 0
-165 164 0
-165 31 0
166 -769 -163 0
-166 769 0
-166 163 0
167 -740 -20 0
-167 740 0
-167 20 0
168 -167 -770 0
-168 167 0
-168 770 0
169 -771 -166 0
-169 771 0
-169 166 0
170 -4 -696 0
-170 4 0
-170 696 0
171 -170 -697 0
-171 170 0
-171 697 0
172 -772 -169 0
-172 772 0
-172 169 0
173 -736 -698 0
-173 736 0
-173 698 0
174 -173 -724 0
-174 173 0
-174 724 0
175 -773 -172 0
-175 773 0
-175 172 0
176 -41 -8 0
-176 41 0
-176 8 0
177 -176 -15 0
-177 176 0
-177 15 0
178 -774 -175 0
-178 774 0
-178 175 0
179 -47 -775 0
-179 47 0
-179 775 0
180 -179 -40 0
-180 179 0
-180 40 0
181 -776 -178 0
-181 776 0
-181 178 0
182 -41 -716 0
-182 41 0
-182 716 0
183 -182 -2 0
-183 182 0
-183 2 0
184 -777 -181 0
-184 777 0
-184 181 0
185 -734 -23 0
-185 734 0
-185 23 0
186 -185 -6 0
-186 185 0
-186 6 0
187 -778 -184 0
-187 778 0
-187 184 0
188 -714 -698 0
-188 714 0
-188 698 0
189 -188 -32 0
-189 188 0
-189 32 0
190 -779 -187 0
-190 779 0
-190 187 0
191 -780 -15 0
-191 780 0
-191 15 0
192 -191 -718 0
-192 191 0
-192 718 0
193 -781 -190 0
-193 781 0
-193 190 0
194 -25 -13 0
-194 25 0
-194 13 0
195 -194 -782 0
-195 194 0
-195 782 0
196 -783 -193 0
-196 783 0
-196 193 0
197 -44 -3 0
-197 44 0
-197 3 0
198 -197 -770 0
-198 197 0
-198 770 0
199 -784 -196 0
-199 784 0
-199 196 0
200 -48 -23 0
-200 48 0
-200 23 0
201 -200 -40 0
-201 200 0
-201 40 0
202 -785 -199 0
-202 785 0
-202 199 0
203 -731 -703 0
-203 731 0
-203 703 0
204 -203 -714 0
-204 203 0
-204 714 0
205 -786 -202 0
-205 786 0
-205 202 0
206 -787 -10 0
-206 787 0
-206 10 0
207 -206 -759 0
-207 206 0
-207 759 0
208 -788 -205 0
-208 788 0
-208 205 0
209 -33 -782 0
-209 33 0
-209 782 0
210 -209 -697 0
-210 209 0
-210 697 0
211 -789 -208 0
-211 789 0
-211 208 0
212 -742 -736 0
-212 742 0
-212 736 0
213 -212 -9 0
-213 212 0
-213 9 0
214 -790 -211 0
-214 790 0
-214 211 0
215 -780 -713 0
-215 780 0
-215 713 0
216 -215 -722 0
-216 215 0
-216 722 0
217 -791 -214 0
-217 791 0
-217 214 0
218 -713 -698 0
-218 713 0
-218 698 0
219 -218 -17 0
-219 218 0
-219 17 0
220 -792 -217 0
-220 792 0
-220 217 0
221 -711 -15 0
-221 711 0
-221 15 0
222 -221 -38 0
-222 221 0
-222 38 0
223 -793 -220 0
-223 793 0
-223 220 0
224 -724 -704 0
-224 724 0
-224 704 0
225 -224 -18 0
-225 224 0
-225 18 0
226 -794 -223 0
-226 794 0
-226 223 0
227 -795 -724 0
-227 795 0
-227 724 0
228 -227 -45 0
-228 227 0
-228 45 0
229 -796 -226 0
-229 796 0
-229 226 0
230 -770 -797 0
-230 770 0
-230 797 0
231 -230 -761 0
-231 230 0
-231 761 0
232 -798 -229 0
-232 798 0
-232 229 0
233 -23 -16 0
-233 23 0
-233 16 0
234 -233 -736 0
-234 233 0
-234 736 0
235 -799 -232 0
-235 799 0
-235 232 0
236 -734 -708 0
-236 734 0
-236 708 0
237 -236 -29 0
-237 236 0
-237 29 0
238 -800 -235 0
-238 800 0
-238 235 0
239 -727 -10 0
-239 727 0
-239 10 0
240 -239 -18 0
-240 239 0
-240 18 0
241 -801 -238 0
-241 801 0
-241 238 0
242 -787 -24 0
-242 787 0
-242 24 0
243 -242 -746 0
-243 242 0
-243 746 0
244 -802 -241 0
-244 802 0
-244 241 0
245 -28 -706 0
-245 28 0
-245 706 0
246 -245 -727 0
-246 245 0
-246 727 0
247 -803 -244 0
-247 803 0
-247 244 0
248 -46 -8 0
-248 46 0
-248 8 0
249 -248 -45 0
-249 248 0
-249 45 0
250 -804 -247 0
-250 804 0
-250 247 0
251 -729 -699 0
-251 729 0
-251 699 0
252 -251 -31 0
-252 251 0
-252 31 0
253 -805 -250 0
-253 805 0
-253 250 0
254 -720 -698 0
-254 720 0
-254 698 0
255 -254 -11 0
-255 254 0
-255 11 0
256 -806 -253 0
-256 806 0
-256 253 0
257 -775 -703 0
-257 775 0
-257 703 0
258 -257 -2 0
-258 257 0
-258 2 0
259 -807 -256 0
-259 807 0
-259 256 0
260 -797 -22 0
-260 797 0
-260 22 0
261 -260 -18 0
-261 260 0
-261 18 0
262 -808 -259 0
-262 808 0
-262 259 0
263 -20 -6 0
-263 20 0
-263 6 0
264 -263 -30 0
-264 263 0
-264 30 0
265 -809 -262 0
-265 809 0
-265 262 0
266 -21 -699 0
-266 21 0
-266 699 0
267 -266 -713 0
-267 266 0
-267 713 0
268 -810 -265 0
-268 810 0
-268 265 0
269 -27 -16 0
-269 27 0
-269 16 0
270 -269 -43 0
-270 269 0
-270 43 0
271 -811 -268 0
-271 811 0
-271 268 0
272 -45 -5 0
-272 45 0
-272 5 0
273 -272 -39 0
-273 272 0
-273 39 0
274 -812 -271 0
-274 812 0
-274 271 0
275 -716 -6 0
-275 716 0
-275 6 0
276 -275 -704 0
-276 275 0
-276 704 0
277 -813 -274 0
-277 813 0
-277 274 0
278 -720 -8 0
-278 720 0
-278 8 0
279 -278 -738 0
-279 278 0
-279 738 0
280 -814 -277 0
-280 814 0
-280 277 0
281 -734 -22 0
-281 734 0
-281 22 0
282 -281 -28 0
-282 281 0
-282 28 0
283 -815 -280 0
-283 815 0
-283 280 0
284 -759 -8 0
-284 759 0
-284 8 0
285 -284 -697 0
-285 284 0
-285 697 0
286 -816 -283 0
-286 816 0
-286 283 0
287 -797 -6 0
-287 797 0
-287 6 0
288 -287 -39 0
-288 287 0
-288 39 0
289 -817 -286 0
-289 817 0
-289 286 0
290 -736 -734 0
-290 736 0
-290 734 0
291 -290 -722 0
-291 290 0
-291 722 0
292 -818 -289 0
-292 818 0
-292 289 0
293 -26 -19 0
-293 26 0
-293 19 0
294 -293 -819 0
-294 293 0
-294 819 0
295 -820 -292 0
-295 820 0
-295 292 0
296 -756 -10 0
-296 756 0
-296 10 0
297 -296 -770 0
-297 296 0
-297 770 0
298 -821 -295 0
-298 821 0
-298 295 0
299 -713 -745 0
-299 713 0
-299 745 0
300 -299 -9 0
-300 299 0
-300 9 0
301 -822 -298 0
-301 822 0
-301 298 0
302 -33 -23 0
-302 33 0
-302 23 0
303 -302 -711 0
-303 302 0
-303 711 0
304 -823 -301 0
-304 823 0
-304 301 0
305 -775 -713 0
-305 775 0
-305 713 0
306 -305 -759 0
-306 305 0
-306 759 0
307 -824 -304 0
-307 824 0
-307 304 0
308 -26 -22 0
-308 26 0
-308 22 0
309 -308 -761 0
-309 308 0
-309 761 0
310 -825 -307 0
-310 825 0
-310 307 0
311 -826 -759 0
-311 826 0
-311 759 0
312 -311 -697 0
-312 311 0
-312 697 0
313 -827 -310 0
-313 827 0
-313 310 0
314 -740 -19 0
-314 740 0
-314 19 0
315 -314 -724 0
-315 314 0
-315 724 0
316 -828 -313 0
-316 828 0
-316 313 0
317 -742 -2 0
-317 742 0
-317 2 0
318 -317 -28 0
-318 317 0
-318 28 0
319 -829 -316 0
-319 829 0
-319 316 0
320 -830 -15 0
-320 830 0
-320 15 0
321 -320 -39 0
-321 320 0
-321 39 0
322 -831 -319 0
-322 831 0
-322 319 0
323 -32 -711 0
-323 32 0
-323 711 0
324 -323 -757 0
-324 323 0
-324 757 0
325 -832 -322 0
-325 832 0
-325 322 0
326 -32 -756 0
-326 32 0
-326 756 0
327 -326 -757 0
-327 326 0
-327 757 0
328 -833 -325 0
-328 833 0
-328 325 0
329 -834 -734 0
-329 834 0
-329 734 0
330 -329 -41 0
-330 329 0
-330 41 0
331 -835 -328 0
-331 835 0
-331 328 0
332 -44 -33 0
-332 44 0
-332 33 0
333 -332 -22 0
-333 332 0
-333 22 0
334 -836 -331 0
-334 836 0
-334 331 0
335 -31 -21 0
-335 31 0
-335 21 0
336 -335 -704 0
-336 335 0
-336 704 0
337 -837 -334 0
-337 837 0
-337 334 0
338 -734 -17 0
-338 734 0
-338 17 0
339 -338 -736 0
-339 338 0
-339 736 0
340 -838 -337 0
-340 838 0
-340 337 0
341 -42 -23 0
-341 42 0
-341 23 0
342 -341 -25 0
-342 341 0
-342 25 0
343 -839 -340 0
-343 839 0
-343 340 0
344 -21 -14 0
-344 21 0
-344 14 0
345 -344 -757 0
-345 344 0
-345 757 0
346 -840 -343 0
-346 840 0
-346 343 0
347 -830 -7 0
-347 830 0
-347 7 0
348 -347 -50 0
-348 347 0
-348 50 0
349 -841 -346 0
-349 841 0
-349 346 0
350 -780 -714 0
-350 780 0
-350 714 0
351 -350 -842 0
-351 350 0
-351 842 0
352 -843 -349 0
-352 843 0
-352 349 0
353 -31 -714 0
-353 31 0
-353 714 0
354 -353 -14 0
-354 353 0
-354 14 0
355 -844 -352 0
-355 844 0
-355 352 0
356 -50 -720 0
-356 50 0
-356 720 0
357 -356 -1 0
-357 356 0
-357 1 0
358 -845 -355 0
-358 845 0
-358 355 0
359 -33 -819 0
-359 33 0
-359 819 0
360 -359 -743 0
-360 359 0
-360 743 0
361 -846 -358 0
-361 846 0
-361 358 0
362 -713 -708 0
-362 713 0
-362 708 0
363 -362 -720 0
-363 362 0
-363 720 0
364 -847 -361 0
-364 847 0
-364 361 0
365 -29 -720 0
-365 29 0
-365 720 0
366 -365 -39 0
-366 365 0
-366 39 0
367 -848 -364 0
-367 848 0
-367 364 0
368 -849 -27 0
-368 849 0
-368 27 0
369 -368 -25 0
-369 368 0
-369 25 0
370 -850 -367 0
-370 850 0
-370 367 0
371 -742 -20 0
-371 742 0
-371 20 0
372 -371 -45 0
-372 371 0
-372 45 0
373 -851 -370 0
-373 851 0
-373 370 0
374 -703 -699 0
-374 703 0
-374 699 0
375 -374 -749 0
-375 374 0
-375 749 0
376 -852 -373 0
-376 852 0
-376 373 0
377 -49 -17 0
-377 49 0
-377 17 0
378 -377 -853 0
-378 377 0
-378 853 0
379 -854 -376 0
-379 854 0
-379 376 0
380 -720 -22 0
-380 720 0
-380 22 0
381 -380 -727 0
-381 380 0
-381 727 0
382 -855 -379 0
-382 855 0
-382 379 0
383 -14 -696 0
-383 14 0
-383 696 0
384 -383 -24 0
-384 383 0
-384 24 0
385 -856 -382 0
-385 856 0
-385 382 0
386 -26 -703 0
-386 26 0
-386 703 0
387 -386 -826 0
-387 386 0
-387 826 0
388 -857 -385 0
-388 857 0
-388 385 0
389 -720 -819 0
-389 720 0
-389 819 0
390 -389 -29 0
-390 389 0
-390 29 0
391 -858 -388 0
-391 858 0
-391 388 0
392 -738 -15 0
-392 738 0
-392 15 0
393 -392 -736 0
-393 392 0
-393 736 0
394 -859 -391 0
-394 859 0
-394 391 0
395 -713 -13 0
-395 713 0
-395 13 0
396 -395 -14 0
-396 395 0
-396 14 0
397 -860 -394 0
-397 860 0
-397 394 0
398 -51 -11 0
-398 51 0
-398 11 0
399 -861 -397 0
-399 861 0
-399 397 0
400 -50 -11 0
-400 50 0
-400 11 0
401 -400 -757 0
-401 400 0
-401 757 0
402 -862 -399 0
-402 862 0
-402 399 0
403 -716 -745 0
-403 716 0
-403 745 0
404 -403 -740 0
-404 403 0
-404 740 0
405 -863 -402 0
-405 863 0
-405 402 0
406 -849 -34 0
-406 849 0
-406 34 0
407 -406 -795 0
-407 406 0
-407 795 0
408 -864 -405 0
-408 864 0
-408 405 0
409 -731 -706 0
-409 731 0
-409 706 0
410 -409 -842 0
-410 409 0
-410 842 0
411 -865 -408 0
-411 865 0
-411 408 0
412 -48 -697 0
-412 48 0
-412 697 0
413 -412 -743 0
-413 412 0
-413 743 0
414 -866 -411 0
-414 866 0
-414 411 0
415 -21 -1 0
-415 21 0
-415 1 0
416 -415 -40 0
-416 415 0
-416 40 0
417 -867 -414 0
-417 867 0
-417 414 0
418 -27 -1 0
-418 27 0
-418 1 0
419 -418 -757 0
-419 418 0
-419 757 0
420 -868 -417 0
-420 868 0
-420 417 0
421 -47 -5 0
-421 47 0
-421 5 0
422 -421 -34 0
-422 421 0
-422 34 0
423 -869 -420 0
-423 869 0
-423 420 0
424 -770 -731 0
-424 770 0
-424 731 0
425 -424 -853 0
-425 424 0
-425 853 0
426 -870 -423 0
-426 870 0
-426 423 0
427 -49 -704 0
-427 49 0
-427 704 0
428 -427 -711 0
-428 427 0
-428 711 0
429 -871 -426 0
-429 871 0
-429 426 0
430 -46 -17 0
-430 46 0
-430 17 0
431 -430 -28 0
-431 430 0
-431 28 0
432 -872 -429 0
-432 872 0
-432 429 0
433 -775 -33 0
-433 775 0
-433 33 0
434 -433 -36 0
-434 433 0
-434 36 0
435 -873 -432 0
-435 873 0
-435 432 0
436 -782 -706 0
-436 782 0
-436 706 0
437 -436 -704 0
-437 436 0
-437 704 0
438 -874 -435 0
-438 874 0
-438 435 0
439 -775 -8 0
-439 775 0
-439 8 0
440 -439 -780 0
-440 439 0
-440 780 0
441 -875 -438 0
-441 875 0
-441 438 0
442 -37 -19 0
-442 37 0
-442 19 0
443 -442 -11 0
-443 442 0
-443 11 0
444 -876 -441 0
-444 876 0
-444 441 0
445 -44 -708 0
-445 44 0
-445 708 0
446 -445 -43 0
-446 445 0
-446 43 0
447 -877 -444 0
-447 877 0
-447 444 0
448 -780 -22 0
-448 780 0
-448 22 0
449 -448 -706 0
-449 448 0
-449 706 0
450 -878 -447 0
-450 878 0
-450 447 0
451 -19 -12 0
-451 19 0
-451 12 0
452 -451 -770 0
-452 451 0
-452 770 0
453 -879 -450 0
-453 879 0
-453 450 0
454 -27 -13 0
-454 27 0
-454 13 0
455 -454 -740 0
-455 454 0
-455 740 0
456 -880 -453 0
-456 880 0
-456 453 0
457 -50 -718 0
-457 50 0
-457 718 0
458 -457 -849 0
-458 457 0
-458 849 0
459 -881 -456 0
-459 881 0
-459 456 0
460 -834 -787 0
-460 834 0
-460 787 0
461 -460 -40 0
-461 460 0
-461 40 0
462 -882 -459 0
-462 882 0
-462 459 0
463 -22 -21 0
-463 22 0
-463 21 0
464 -463 -3 0
-464 463 0
-464 3 0
465 -883 -462 0
-465 883 0
-465 462 0
466 -36 -11 0
-466 36 0
-466 11 0
467 -466 -3 0
-467 466 0
-467 3 0
468 -884 -465 0
-468 884 0
-468 465 0
469 -720 -4 0
-469 720 0
-469 4 0
470 -469 -696 0
-470 469 0
-470 696 0
471 -885 -468 0
-471 885 0
-471 468 0
472 -41 -21 0
-472 41 0
-472 21 0
473 -472 -14 0
-473 472 0
-473 14 0
474 -886 -471 0
-474 886 0
-474 471 0
475 -795 -731 0
-475 795 0
-475 731 0
476 -475 -711 0
-476 475 0
-476 711 0
477 -887 -474 0
-477 887 0
-477 474 0
478 -756 -759 0
-478 756 0
-478 759 0
479 -478 -6 0
-479 478 0
-479 6 0
480 -888 -477 0
-480 888 0
-480 477 0
481 -32 -12 0
-481 32 0
-481 12 0
482 -481 -749 0
-482 481 0
-482 749 0
483 -889 -480 0
-483 889 0
-483 480 0
484 -36 -10 0
-484 36 0
-484 10 0
485 -484 -18 0
-485 484 0
-485 18 0
486 -890 -483 0
-486 890 0
-486 483 0
487 -155 -18 0
-487 155 0
-487 18 0
488 -891 -486 0
-488 891 0
-488 486 0
489 -775 -782 0
-489 775 0
-489 782 0
490 -489 -746 0
-490 489 0
-490 746 0
491 -892 -488 0
-491 892 0
-491 488 0
492 -12 -759 0
-492 12 0
-492 759 0
493 -492 -36 0
-493 492 0
-493 36 0
494 -893 -491 0
-494 893 0
-494 491 0
495 -708 -8 0
-495 708 0
-495 8 0
496 -495 -31 0
-496 495 0
-496 31 0
497 -894 -494 0
-497 894 0
-497 494 0
498 -775 -849 0
-498 775 0
-498 849 0
499 -498 -39 0
-499 498 0
-499 39 0
500 -895 -497 0
-500 895 0
-500 497 0
501 -742 -7 0
-501 742 0
-501 7 0
502 -501 -740 0
-502 501 0
-502 740 0
503 -896 -500 0
-503 896 0
-503 500 0
504 -797 -703 0
-504 797 0
-504 703 0
505 -504 -830 0
-505 504 0
-505 830 0
506 -897 -503 0
-506 897 0
-506 503 0
507 -770 -834 0
-507 770 0
-507 834 0
508 -507 -24 0
-508 507 0
-508 24 0
509 -898 -506 0
-509 898 0
-509 506 0
510 -740 -797 0
-510 740 0
-510 797 0
511 -510 -30 0
-511 510 0
-511 30 0
512 -899 -509 0
-512 899 0
-512 509 0
513 -729 -714 0
-513 729 0
-513 714 0
514 -513 -743 0
-514 513 0
-514 743 0
515 -900 -512 0
-515 900 0
-515 512 0
516 -41 -33 0
-516 41 0
-516 33 0
517 -516 -740 0
-517 516 0
-517 740 0
518 -901 -515 0
-518 901 0
-518 515 0
519 -504 -720 0
-519 504 0
-519 720 0
520 -902 -518 0
-520 902 0
-520 518 0
521 -716 -729 0
-521 716 0
-521 729 0
522 -521 -842 0
-522 521 0
-522 842 0
523 -903 -520 0
-523 903 0
-523 520 0
524 -797 -7 0
-524 797 0
-524 7 0
525 -524 -782 0
-525 524 0
-525 782 0
526 -904 -523 0
-526 904 0
-526 523 0
527 -757 -14 0
-527 757 0
-527 14 0
528 -527 -853 0
-528 527 0
-528 853 0
529 -905 -526 0
-529 905 0
-529 526 0
530 -731 -716 0
-530 731 0
-530 716 0
531 -530 -696 0
-531 530 0
-531 696 0
532 -906 -529 0
-532 906 0
-532 529 0
533 -37 -15 0
-533 37 0
-533 15 0
534 -533 -27 0
-534 533 0
-534 27 0
535 -907 -532 0
-535 907 0
-535 532 0
536 -44 -749 0
-536 44 0
-536 749 0
537 -536 -25 0
-537 536 0
-537 25 0
538 -908 -535 0
-538 908 0
-538 535 0
539 -780 -10 0
-539 780 0
-539 10 0
540 -539 -31 0
-540 539 0
-540 31 0
541 -909 -538 0
-541 909 0
-541 538 0
542 -720 -17 0
-542 720 0
-542 17 0
543 -542 -743 0
-543 542 0
-543 743 0
544 -910 -541 0
-544 910 0
-544 541 0
545 -29 -708 0
-545 29 0
-545 708 0
546 -545 -45 0
-546 545 0
-546 45 0
547 -911 -544 0
-547 911 0
-547 544 0
548 -50 -32 0
-548 50 0
-548 32 0
549 -548 -48 0
-549 548 0
-549 48 0
550 -912 -547 0
-550 912 0
-550 547 0
551 -50 -4 0
-551 50 0
-551 4 0
552 -551 -738 0
-552 551 0
-552 738 0
553 -913 -550 0
-553 913 0
-553 550 0
554 -47 -26 0
-554 47 0
-554 26 0
555 -554 -914 0
-555 554 0
-555 914 0
556 -915 -553 0
-556 915 0
-556 553 0
557 -251 -700 0
-557 251 0
-557 700 0
558 -916 -556 0
-558 916 0
-558 556 0
559 -47 -698 0
-559 47 0
-559 698 0
560 -559 -45 0
-560 559 0
-560 45 0
561 -917 -558 0
-561 917 0
-561 558 0
562 -713 -10 0
-562 713 0
-562 10 0
563 -562 -9 0
-563 562 0
-563 9 0
564 -918 -561 0
-564 918 0
-564 561 0
565 -27 -10 0
-565 27 0
-565 10 0
566 -565 -43 0
-566 565 0
-566 43 0
567 -919 -564 0
-567 919 0
-567 564 0
568 -9 -4 0
-568 9 0
-568 4 0
569 -568 -38 0
-569 568 0
-569 38 0
570 -920 -567 0
-570 920 0
-570 567 0
571 -49 -770 0
-571 49 0
-571 770 0
572 -571 -704 0
-572 571 0
-572 704 0
573 -921 -570 0
-573 921 0
-573 570 0
574 -787 -842 0
-574 787 0
-574 842 0
575 -574 -48 0
-575 574 0
-575 48 0
576 -922 -573 0
-576 922 0
-576 573 0
577 -826 -734 0
-577 826 0
-577 734 0
578 -577 -736 0
-578 577 0
-578 736 0
579 -923 -576 0
-579 923 0
-579 576 0
580 -25 -24 0
-580 25 0
-580 24 0
581 -580 -40 0
-581 580 0
-581 40 0
582 -924 -579 0
-582 924 0
-582 579 0
583 -849 -914 0
-583 849 0
-583 914 0
584 -583 -39 0
-584 583 0
-584 39 0
585 -925 -582 0
-585 925 0
-585 582 0
586 -826 -752 0
-586 826 0
-586 752 0
587 -586 -15 0
-587 586 0
-587 15 0
588 -926 -585 0
-588 926 0
-588 585 0
589 -834 -25 0
-589 834 0
-589 25 0
590 -589 -49 0
-590 589 0
-590 49 0
591 -927 -588 0
-591 927 0
-591 588 0
592 -752 -17 0
-592 752 0
-592 17 0
593 -592 -30 0
-593 592 0
-593 30 0
594 -928 -591 0
-594 928 0
-594 591 0
595 -44 -32 0
-595 44 0
-595 32 0
596 -595 -914 0
-596 595 0
-596 914 0
597 -929 -594 0
-597 929 0
-597 594 0
598 -44 -37 0
-598 44 0
-598 37 0
599 -598 -27 0
-599 598 0
-599 27 0
600 -930 -597 0
-600 930 0
-600 597 0
601 -32 -22 0
-601 32 0
-601 22 0
602 -601 -746 0
-602 601 0
-602 746 0
603 -931 -600 0
-603 931 0
-603 600 0
604 -722 -714 0
-604 722 0
-604 714 0
605 -604 -9 0
-605 604 0
-605 9 0
606 -932 -603 0
-606 932 0
-606 603 0
607 -33 -713 0
-607 33 0
-607 713 0
608 -607 -720 0
-608 607 0
-608 720 0
609 -933 -606 0
-609 933 0
-609 606 0
610 -11 -5 0
-610 11 0
-610 5 0
611 -610 -34 0
-611 610 0
-611 34 0
612 -934 -609 0
-612 934 0
-612 609 0
613 -775 -4 0
-613 775 0
-613 4 0
614 -613 -756 0
-614 613 0
-614 756 0
615 -935 -612 0
-615 935 0
-615 612 0
616 -842 -8 0
-616 842 0
-616 8 0
617 -616 -770 0
-617 616 0
-617 770 0
618 -936 -615 0
-618 936 0
-618 615 0
619 -734 -759 0
-619 734 0
-619 759 0
620 -619 -740 0
-620 619 0
-620 740 0
621 -937 -618 0
-621 937 0
-621 618 0
622 -834 -36 0
-622 834 0
-622 36 0
623 -622 -842 0
-623 622 0
-623 842 0
624 -938 -621 0
-624 938 0
-624 621 0
625 -826 -718 0
-625 826 0
-625 718 0
626 -625 -3 0
-626 625 0
-626 3 0
627 -939 -624 0
-627 939 0
-627 624 0
628 -749 -713 0
-628 749 0
-628 713 0
629 -628 -770 0
-629 628 0
-629 770 0
630 -940 -627 0
-630 940 0
-630 627 0
631 -749 -727 0
-631 749 0
-631 727 0
632 -631 -753 0
-632 631 0
-632 753 0
633 -941 -630 0
-633 941 0
-633 630 0
634 -47 -12 0
-634 47 0
-634 12 0
635 -634 -37 0
-635 634 0
-635 37 0
636 -942 -633 0
-636 942 0
-636 633 0
637 -749 -33 0
-637 749 0
-637 33 0
638 -637 -700 0
-638 637 0
-638 700 0
639 -943 -636 0
-639 943 0
-639 636 0
640 -41 -4 0
-640 41 0
-640 4 0
641 -640 -16 0
-641 640 0
-641 16 0
642 -944 -639 0
-642 944 0
-642 639 0
643 -25 -703 0
-643 25 0
-643 703 0
644 -643 -49 0
-644 643 0
-644 49 0
645 -945 -642 0
-645 945 0
-645 642 0
646 -37 -714 0
-646 37 0
-646 714 0
647 -646 -29 0
-647 646 0
-647 29 0
648 -946 -645 0
-648 946 0
-648 645 0
649 -749 -34 0
-649 749 0
-649 34 0
650 -649 -28 0
-650 649 0
-650 28 0
651 -947 -648 0
-651 947 0
-651 648 0
652 -41 -849 0
-652 41 0
-652 849 0
653 -652 -759 0
-653 652 0
-653 759 0
654 -948 -651 0
-654 948 0
-654 651 0
655 -914 -1 0
-655 914 0
-655 1 0
656 -655 -6 0
-656 655 0
-656 6 0
657 -949 -654 0
-657 949 0
-657 654 0
658 -740 -3 0
-658 740 0
-658 3 0
659 -658 -43 0
-659 658 0
-659 43 0
660 -950 -657 0
-660 950 0
-660 657 0
661 -775 -706 0
-661 775 0
-661 706 0
662 -661 -724 0
-662 661 0
-662 724 0
663 -951 -660 0
-663 951 0
-663 660 0
664 -39 -21 0
-664 39 0
-664 21 0
665 -664 -40 0
-665 664 0
-665 40 0
666 -952 -663 0
-666 952 0
-666 663 0
667 -15 -714 0
-667 15 0
-667 714 0
668 -667 -35 0
-668 667 0
-668 35 0
669 -953 -666 0
-669 953 0
-669 666 0
670 -251 -711 0
-670 251 0
-670 711 0
671 -954 -669 0
-671 954 0
-671 669 0
672 -770 -12 0
-672 770 0
-672 12 0
673 -672 -43 0
-673 672 0
-673 43 0
674 -955 -671 0
-674 955 0
-674 671 0
675 -731 -713 0
-675 731 0
-675 713 0
676 -675 -722 0
-676 675 0
-676 722 0
677 -956 -674 0
-677 956 0
-677 674 0
678 -819 -5 0
-678 819 0
-678 5 0
679 -678 -722 0
-679 678 0
-679 722 0
680 -957 -677 0
-680 957 0
-680 677 0
681 -722 -914 0
-681 722 0
-681 914 0
682 -681 -770 0
-682 681 0
-682 770 0
683 -958 -680 0
-683 958 0
-683 680 0
684 -46 -703 0
-684 46 0
-684 703 0
685 -684 -853 0
-685 684 0
-685 853 0
686 -959 -683 0
-686 959 0
-686 683 0
687 -47 -736 0
-687 47 0
-687 736 0
688 -687 -743 0
-688 687 0
-688 743 0
689 -960 -686 0
-689 960 0
-689 686 0
690 -11 -914 0
-690 11 0
-690 914 0
691 -690 -736 0
-691 690 0
-691 736 0
692 -961 -689 0
-692 961 0
-692 689 0
693 -46 -29 0
-693 46 0
-693 29 0
694 -693 -39 0
-694 693 0
-694 39 0
695 -962 -692 0
-695 962 0
-695 692 0
-696 -1 0
696 1 0
-697 -3 0
697 3 0
-698 -5 0
698 5 0
-699 -4 0
699 4 0
-700 -6 0
700 6 0
-701 -54 0
701 54 0
-702 -52 0
702 52 0
-703 -7 0
703 7 0
-704 -9 0
704 9 0
-705 -57 0
705 57 0
-706 -10 0
706 10 0
-707 -60 0
707 60 0
-708 -12 0
708 12 0
-709 -63 0
709 63 0
-710 -66 0
710 66 0
-711 -18 0
711 18 0
-712 -69 0
712 69 0
-713 -19 0
713 19 0
-714 -8 0
714 8 0
-715 -72 0
715 72 0
-716 -20 0
716 20 0
-717 -75 0
717 75 0
-718 -22 0
718 22 0
-719 -78 0
719 78 0
-720 -23 0
720 23 0
-721 -81 0
721 81 0
-722 -25 0
722 25 0
-723 -84 0
723 84 0
-724 -24 0
724 24 0
-725 -87 0
725 87 0
-726 -90 0
726 90 0
-727 -30 0
727 30 0
-728 -93 0
728 93 0
-729 -13 0
729 13 0
-730 -96 0
730 96 0
-731 -26 0
731 26 0
-732 -99 0
732 99 0
-733 -102 0
733 102 0
-734 -33 0
734 33 0
-735 -105 0
735 105 0
-736 -36 0
736 36 0
-737 -108 0
737 108 0
-738 -17 0
738 17 0
-739 -111 0
739 111 0
-740 -34 0
740 34 0
-741 -114 0
741 114 0
-742 -37 0
742 37 0
-743 -39 0
743 39 0
-744 -117 0
744 117 0
-745 -16 0
745 16 0
-746 -28 0
746 28 0
-747 -120 0
747 120 0
-748 -123 0
748 123 0
-749 -41 0
749 41 0
-750 -126 0
750 126 0
-751 -129 0
751 129 0
-752 -21 0
752 21 0
-753 -43 0
753 43 0
-754 -132 0
754 132 0
-755 -135 0
755 135 0
-756 -14 0
756 14 0
-757 -38 0
757 38 0
-758 -138 0
758 138 0
-759 -11 0
759 11 0
-760 -141 0
760 141 0
-761 -45 0
761 45 0
-762 -144 0
762 144 0
-763 -147 0
763 147 0
-764 -150 0
764 150 0
-765 -153 0
765 153 0
-766 -156 0
766 156 0
-767 -159 0
767 159 0
-768 -162 0
768 162 0
-769 -165 0
769 165 0
-770 -48 0
770 48 0
-771 -168 0
771 168 0
-772 -171 0
772 171 0
-773 -174 0
773 174 0
-774 -177 0
774 177 0
-775 -42 0
775 42 0
-776 -180 0
776 180 0
-777 -183 0
777 183 0
-778 -186 0
778 186 0
-779 -189 0
779 189 0
-780 -27 0
780 27 0
-781 -192 0
781 192 0
-782 -29 0
782 29 0
-783 -195 0
783 195 0
-784 -198 0
784 198 0
-785 -201 0
785 201 0
-786 -204 0
786 204 0
-787 -46 0
787 46 0
-788 -207 0
788 207 0
-789 -210 0
789 210 0
-790 -213 0
790 213 0
-791 -216 0
791 216 0
-792 -219 0
792 219 0
-793 -222 0
793 222 0
-794 -225 0
794 225 0
-795 -49 0
795 49 0
-796 -228 0
796 228 0
-797 -32 0
797 32 0
-798 -231 0
798 231 0
-799 -234 0
799 234 0
-800 -237 0
800 237 0
-801 -240 0
801 240 0
-802 -243 0
802 243 0
-803 -246 0
803 246 0
-804 -249 0
804 249 0
-805 -252 0
805 252 0
-806 -255 0
806 255 0
-807 -258 0
807 258 0
-808 -261 0
808 261 0
-809 -264 0
809 264 0
-810 -267 0
810 267 0
-811 -270 0
811 270 0
-812 -273 0
812 273 0
-813 -276 0
813 276 0
-814 -279 0
814 279 0
-815 -282 0
815 282 0
-816 -285 0
816 285 0
-817 -288 0
817 288 0
-818 -291 0
818 291 0
-819 -15 0
819 15 0
-820 -294 0
820 294 0
-821 -297 0
821 297 0
-822 -300 0
822 300 0
-823 -303 0
823 303 0
-824 -306 0
824 306 0
-825 -309 0
825 309 0
-826 -50 0
826 50 0
-827 -312 0
827 312 0
-828 -315 0
828 315 0
-829 -318 0
829 318 0
-830 -44 0
830 44 0
-831 -321 0
831 321 0
-832 -324 0
832 324 0
-833 -327 0
833 327 0
-834 -47 0
834 47 0
-835 -330 0
835 330 0
-836 -333 0
836 333 0
-837 -336 0
837 336 0
-838 -339 0
838 339 0
-839 -342 0
839 342 0
-840 -345 0
840 345 0
-841 -348 0
841 348 0
-842 -31 0
842 31 0
-843 -351 0
843 351 0
-844 -354 0
844 354 0
-845 -357 0
845 357 0
-846 -360 0
846 360 0
-847 -363 0
847 363 0
-848 -366 0
848 366 0
-849 -35 0
849 35 0
-850 -369 0
850 369 0
-851 -372 0
851 372 0
-852 -375 0
852 375 0
-853 -40 0
853 40 0
-854 -378 0
854 378 0
-855 -381 0
855 381 0
-856 -384 0
856 384 0
-857 -387 0
857 387 0
-858 -390 0
858 390 0
-859 -393 0
859 393 0
-860 -396 0
860 396 0
-861 -398 0
861 398 0
-862 -401 0
862 401 0
-863 -404 0
863 404 0
-864 -407 0
864 407 0
-865 -410 0
865 410 0
-866 -413 0
866 413 0
-867 -416 0
867 416 0
-868 -419 0
868 419 0
-869 -422 0
869 422 0
-870 -425 0
870 425 0
-871 -428 0
871 428 0
-872 -431 0
872 431 0
-873 -434 0
873 434 0
-874 -437 0
874 437 0
-875 -440 0
875 440 0
-876 -443 0
876 443 0
-877 -446 0
877 446 0
-878 -449 0
878 449 0
-879 -452 0
879 452 0
-880 -455 0
880 455 0
-881 -458 0
881 458 0
-882 -461 0
882 461 0
-883 -464 0
883 464 0
-884 -467 0
884 467 0
-885 -470 0
885 470 0
-886 -473 0
886 473 0
-887 -476 0
887 476 0
-888 -479 0
888 479 0
-889 -482 0
889 482 0
-890 -485 0
890 485 0
-891 -487 0
891 487 0
-892 -490 0
892 490 0
-893 -493 0
893 493 0
-894 -496 0
894 496 0
-895 -499 0
895 499 0
-896 -502 0
896 502 0
-897 -505 0
897 505 0
-898 -508 0
898 508 0
-899 -511 0
899 511 0
-900 -514 0
900 514 0
-901 -517 0
901 517 0
-902 -519 0
902 519 0
-903 -522 0
903 522 0
-904 -525 0
904 525 0
-905 -528 0
905 528 0
-906 -531 0
906 531 0
-907 -534 0
907 534 0
-908 -537 0
908 537 0
-909 -540 0
909 540 0
-910 -543 0
910 543 0
-911 -546 0
911 546 0
-912 -549 0
912 549 0
-913 -552 0
913 552 0
-914 -2 0
914 2 0
-915 -555 0
915 555 0
-916 -557 0
916 557 0
-917 -560 0
917 560 0
-918 -563 0
918 563 0
-919 -566 0
919 566 0
-920 -569 0
920 569 0
-921 -572 0
921 572 0
-922 -575 0
922 575 0
-923 -578 0
923 578 0
-924 -581 0
924 581 0
-925 -584 0
925 584 0
-926 -587 0
926 587 0
-927 -590 0
927 590 0
-928 -593 0
928 593 0
-929 -596 0
929 596 0
-930 -599 0
930 599 0
-931 -602 0
931 602 0
-932 -605 0
932 605 0
-933 -608 0
933 608 0
-934 -611 0
934 611 0
-935 -614 0
935 614 0
-936 -617 0
936 617 0
-937 -620 0
937 620 0
-938 -623 0
938 623 0
-939 -626 0
939 626 0
-940 -629 0
940 629 0
-941 -632 0
941 632 0
-942 -635 0
942 635 0
-943 -638 0
943 638 0
-944 -641 0
944 641 0
-945 -644 0
945 644 0
-946 -647 0
946 647 0
-947 -650 0
947 650 0
-948 -653 0
948 653 0
-949 -656 0
949 656 0
-950 -659 0
950 659 0
-951 -662 0
951 662 0
-952 -665 0
952 665 0
-953 -668 0
953 668 0
-954 -670 0
954 670 0
-955 -673 0
955 673 0
-956 -676 0
956 676 0
-957 -679 0
957 679 0
-958 -682 0
958 682 0
-959 -685 0
959 685 0
-960 -688 0
960 688 0
-961 -691 0
961 691 0
-962 -694 0
962 694 0
695 0
